nohup: ignoring input
original problem has 11923 variables (11923 bin, 0 int, 0 impl, 0 cont) and 15151 constraints
generalized_independentset-small
firstsol
symmetric
seed: 0
cpu
Traceback (most recent call last):
  File "compute_evaluation_results_scip.py", line 111, in <module>
    run_localbranch.primal_integral_03(
  File "/home/liudefen/projects/ML4LocalBranch_extend/execute_heuristics.py", line 536, in primal_integral_03
    with gzip.open(filename, 'rb') as f:
  File "/home/liudefen/opt/python3.8.0/lib/python3.8/gzip.py", line 58, in open
    binary_file = GzipFile(filename, gz_mode, compresslevel)
  File "/home/liudefen/opt/python3.8.0/lib/python3.8/gzip.py", line 173, in __init__
    fileobj = self.myfileobj = builtins.open(filename, mode or 'rb')
FileNotFoundError: [Errno 2] No such file or directory: './result/generated_instances/generalized_independentset/-small/firstsol/scip/heuristic_mode/heuristic_mode/heuristic_mode/heuristic_mode/lb-from-firstsol-t_total60s-small_lb_k0_rl/seed0/lb-test-generalized_independentset-80_transformed.pkl'
